p cnf 397 861
c ind 56 73 251 333 364 207 263 242 376 12 75 23 59 208 26 366 374 141 388 46 78 1 22 270 299 40 245 254 5 337 378 28 36 7 25 93 18 147 157 16 370 392 19 44 217 368 61 390 380 360 17 166 214 80 274 48 15 30 6 153 394 90 4 13 11 382 2 10 290 20 81 9 346 372 24 8 14 386 32 54 205 244 310 321 384 34 42 140 317 180 21 38 131 396 362 47 286 3 149 65 0
-28 27 0
-27 -30 0
-27 29 0
-30 29 0
-29 -32 0
-29 31 0
-32 31 0
-31 -34 0
-31 33 0
-34 33 0
-33 -36 0
-33 35 0
-36 35 0
-35 -38 0
-35 37 0
-38 37 0
-37 -40 0
-37 39 0
-40 39 0
-39 -42 0
-39 41 0
-42 41 0
-41 -44 0
-41 43 0
-44 43 0
28 30 32 34 36 38 40 42 44 0
-45 -30 0
45 30 0
-48 5 0
-49 46 0
-49 47 0
-49 48 0
-46 -47 -48 49 0
-50 51 0
-52 50 0
-53 -49 50 0
53 49 0
53 -50 0
-54 6 0
-54 -48 0
-55 46 0
-55 54 0
-46 -54 55 0
-57 56 0
-57 48 0
-56 -48 57 0
-58 55 57 0
58 -55 0
58 -57 0
-59 4 0
-60 59 0
-60 54 0
-59 -54 60 0
-47 61 0
-62 61 0
-62 48 0
-61 -48 62 0
-63 60 62 0
63 -60 0
63 -62 0
-64 58 0
-64 63 0
-58 -63 64 0
-65 1 0
-66 65 0
-66 54 0
-65 -54 66 0
-67 68 0
-69 67 0
-70 67 0
-70 48 0
-67 -48 70 0
-71 66 70 0
71 -66 0
71 -70 0
-72 -64 71 0
72 64 0
72 -71 0
-73 46 0
-73 -59 0
-74 73 0
-74 54 0
-73 -54 74 0
-75 56 0
-76 75 0
-76 48 0
-75 -48 76 0
-77 74 76 0
77 -74 0
77 -76 0
-78 6 0
-78 54 0
-78 -5 0
-78 -48 0
-79 59 0
-79 78 0
-59 -78 79 0
-5 81 0
-48 81 0
-81 -78 0
-82 80 0
-82 81 0
-80 -81 82 0
-83 79 82 0
83 -79 0
83 -82 0
-84 77 0
-84 83 0
-77 -83 84 0
-85 86 0
-87 85 0
-88 -84 85 0
88 84 0
88 -85 0
-89 73 0
-89 78 0
-73 -78 89 0
-91 90 0
-91 81 0
-90 -81 91 0
-92 89 91 0
92 -89 0
92 -91 0
-94 93 0
-94 78 0
-93 -78 94 0
-95 96 0
-97 95 0
-98 95 0
-98 81 0
-95 -81 98 0
-99 94 98 0
99 -94 0
99 -98 0
-100 -92 99 0
100 92 0
100 -99 0
-101 46 0
-101 47 0
-101 48 0
-46 -47 -48 101 0
-102 50 0
-50 103 0
-104 -101 50 0
104 101 0
104 -50 0
-105 46 0
-105 54 0
-46 -54 105 0
-106 56 0
-106 48 0
-56 -48 106 0
-107 105 106 0
107 -105 0
107 -106 0
-108 59 0
-108 54 0
-59 -54 108 0
-109 61 0
-109 48 0
-61 -48 109 0
-110 108 109 0
110 -108 0
110 -109 0
-111 107 0
-111 110 0
-107 -110 111 0
-112 65 0
-112 54 0
-65 -54 112 0
-113 67 0
-67 114 0
-115 67 0
-115 48 0
-67 -48 115 0
-116 112 115 0
116 -112 0
116 -115 0
-117 -111 116 0
117 111 0
117 -116 0
-118 73 0
-118 54 0
-73 -54 118 0
-119 75 0
-119 48 0
-75 -48 119 0
-120 118 119 0
120 -118 0
120 -119 0
-121 59 0
-121 54 0
-59 -54 121 0
-122 61 0
-122 48 0
-61 -48 122 0
-123 121 122 0
123 -121 0
123 -122 0
-124 120 0
-124 123 0
-120 -123 124 0
-125 85 0
-85 126 0
-127 -124 85 0
127 124 0
127 -85 0
-128 73 0
-128 54 0
-73 -54 128 0
-129 75 0
-129 48 0
-75 -48 129 0
-130 128 129 0
130 -128 0
130 -129 0
-131 1 0
-65 131 0
-132 131 0
-132 54 0
-131 -54 132 0
-134 133 0
-133 135 0
-136 133 0
-136 48 0
-133 -48 136 0
-137 132 136 0
137 -132 0
137 -136 0
-138 -130 137 0
138 130 0
138 -137 0
-139 34 0
-139 104 0
-139 117 0
-139 127 0
-139 138 0
-34 -104 -117 -127 -138 139 0
-141 6 0
-141 54 0
-78 141 0
-141 -48 0
-142 46 0
-142 140 0
-142 141 0
-46 -140 -141 142 0
-144 143 0
-143 145 0
-146 -142 143 0
146 142 0
146 -143 0
-147 5 0
-48 147 0
-147 81 0
-147 -78 0
-147 -141 0
-148 46 0
-148 147 0
-46 -147 148 0
-150 149 0
-150 141 0
-149 -141 150 0
-151 148 150 0
151 -148 0
151 -150 0
-152 59 0
-152 147 0
-59 -147 152 0
-140 153 0
-154 153 0
-154 141 0
-153 -141 154 0
-155 152 154 0
155 -152 0
155 -154 0
-156 151 0
-156 155 0
-151 -155 156 0
-157 2 0
-157 -65 0
-157 -131 0
-158 157 0
-158 147 0
-157 -147 158 0
-160 159 0
-159 161 0
-162 159 0
-162 141 0
-159 -141 162 0
-163 158 162 0
163 -158 0
163 -162 0
-164 -156 163 0
164 156 0
164 -163 0
-165 73 0
-165 147 0
-73 -147 165 0
-166 149 0
-167 166 0
-167 141 0
-166 -141 167 0
-168 165 167 0
168 -165 0
168 -167 0
-169 59 0
-169 147 0
-59 -147 169 0
-170 153 0
-170 141 0
-153 -141 170 0
-171 169 170 0
171 -169 0
171 -170 0
-172 168 0
-172 171 0
-168 -171 172 0
-174 173 0
-173 175 0
-176 -172 173 0
176 172 0
176 -173 0
-177 73 0
-177 147 0
-73 -147 177 0
-178 166 0
-178 141 0
-166 -141 178 0
-179 177 178 0
179 -177 0
179 -178 0
-180 2 0
-157 180 0
-180 -65 0
-180 -131 0
-181 180 0
-181 147 0
-180 -147 181 0
-183 182 0
-182 184 0
-185 182 0
-185 141 0
-182 -141 185 0
-186 181 185 0
186 -181 0
186 -185 0
-187 -179 186 0
187 179 0
187 -186 0
-188 36 0
-188 146 0
-188 164 0
-188 176 0
-188 187 0
-36 -146 -164 -176 -187 188 0
-189 46 0
-189 47 0
-189 48 0
-46 -47 -48 189 0
-190 -189 50 0
190 189 0
190 -50 0
-191 46 0
-191 54 0
-46 -54 191 0
-192 56 0
-192 48 0
-56 -48 192 0
-193 191 192 0
193 -191 0
193 -192 0
-194 59 0
-194 54 0
-59 -54 194 0
-195 61 0
-195 48 0
-61 -48 195 0
-196 194 195 0
196 -194 0
196 -195 0
-197 193 0
-197 196 0
-193 -196 197 0
-198 65 0
-198 54 0
-65 -54 198 0
-199 67 0
-199 48 0
-67 -48 199 0
-200 198 199 0
200 -198 0
200 -199 0
-201 -197 200 0
201 197 0
201 -200 0
-202 73 0
-202 54 0
-73 -54 202 0
-203 75 0
-203 48 0
-75 -48 203 0
-204 202 203 0
204 -202 0
204 -203 0
-205 6 0
-205 54 0
-78 205 0
-205 141 0
-205 -48 0
-205 -147 0
-206 59 0
-206 205 0
-59 -205 206 0
-207 80 0
-208 5 0
-48 208 0
-208 81 0
-147 208 0
-208 -78 0
-208 -205 0
-209 207 0
-209 208 0
-207 -208 209 0
-210 206 209 0
210 -206 0
210 -209 0
-211 204 0
-211 210 0
-204 -210 211 0
-212 -211 85 0
212 211 0
212 -85 0
-213 73 0
-213 205 0
-73 -205 213 0
-90 214 0
-215 214 0
-215 208 0
-214 -208 215 0
-216 213 215 0
216 -213 0
216 -215 0
-218 217 0
-218 205 0
-217 -205 218 0
-220 219 0
-219 221 0
-222 219 0
-222 208 0
-219 -208 222 0
-223 218 222 0
223 -218 0
223 -222 0
-224 -216 223 0
224 216 0
224 -223 0
-225 190 0
-225 201 0
-225 212 0
-225 224 0
-225 32 0
-190 -201 -212 -224 -32 225 0
-226 46 0
-226 140 0
-226 141 0
-46 -140 -141 226 0
-227 -226 143 0
227 226 0
227 -143 0
-228 46 0
-228 147 0
-46 -147 228 0
-229 149 0
-229 141 0
-149 -141 229 0
-230 228 229 0
230 -228 0
230 -229 0
-231 59 0
-231 147 0
-59 -147 231 0
-232 153 0
-232 141 0
-153 -141 232 0
-233 231 232 0
233 -231 0
233 -232 0
-234 230 0
-234 233 0
-230 -233 234 0
-235 157 0
-235 147 0
-157 -147 235 0
-236 159 0
-236 141 0
-159 -141 236 0
-237 235 236 0
237 -235 0
237 -236 0
-238 -234 237 0
238 234 0
238 -237 0
-239 73 0
-239 147 0
-73 -147 239 0
-240 166 0
-240 141 0
-166 -141 240 0
-241 239 240 0
241 -239 0
241 -240 0
-242 5 0
-242 48 0
-242 81 0
-242 147 0
-242 208 0
-242 -54 0
-242 -78 0
-242 -141 0
-242 -205 0
-243 59 0
-243 242 0
-59 -242 243 0
-245 6 0
-54 245 0
-78 245 0
-141 245 0
-205 245 0
-245 -242 0
-246 244 0
-246 245 0
-244 -245 246 0
-247 243 246 0
247 -243 0
247 -246 0
-248 241 0
-248 247 0
-241 -247 248 0
-249 -248 173 0
249 248 0
249 -173 0
-250 73 0
-250 242 0
-73 -242 250 0
-251 149 0
-251 166 0
-252 251 0
-252 245 0
-251 -245 252 0
-253 250 252 0
253 -250 0
253 -252 0
-255 254 0
-255 242 0
-254 -242 255 0
-257 256 0
-256 258 0
-259 256 0
-259 245 0
-256 -245 259 0
-260 255 259 0
260 -255 0
260 -259 0
-261 -253 260 0
261 253 0
261 -260 0
-262 227 0
-262 238 0
-262 249 0
-262 261 0
-262 28 0
-227 -238 -249 -261 -28 262 0
-264 46 0
-264 263 0
-264 48 0
-46 -263 -48 264 0
-266 265 0
-265 267 0
-268 -264 265 0
268 264 0
268 -265 0
-269 46 0
-269 54 0
-46 -54 269 0
-271 270 0
-271 48 0
-270 -48 271 0
-272 269 271 0
272 -269 0
272 -271 0
-273 59 0
-273 54 0
-59 -54 273 0
-263 274 0
-275 274 0
-275 48 0
-274 -48 275 0
-276 273 275 0
276 -273 0
276 -275 0
-277 272 0
-277 276 0
-272 -276 277 0
-278 65 0
-278 54 0
-65 -54 278 0
-280 279 0
-279 281 0
-282 279 0
-282 48 0
-279 -48 282 0
-283 278 282 0
283 -278 0
283 -282 0
-284 -277 283 0
284 277 0
284 -283 0
-285 73 0
-285 54 0
-73 -54 285 0
-286 270 0
-287 286 0
-287 48 0
-286 -48 287 0
-288 285 287 0
288 -285 0
288 -287 0
-289 59 0
-289 205 0
-59 -205 289 0
-291 290 0
-291 208 0
-290 -208 291 0
-292 289 291 0
292 -289 0
292 -291 0
-293 288 0
-293 292 0
-288 -292 293 0
-295 294 0
-294 296 0
-297 -293 294 0
297 293 0
297 -294 0
-298 73 0
-298 205 0
-73 -205 298 0
-300 299 0
-300 208 0
-299 -208 300 0
-301 298 300 0
301 -298 0
301 -300 0
-302 217 0
-302 205 0
-217 -205 302 0
-304 303 0
-303 305 0
-306 303 0
-306 208 0
-303 -208 306 0
-307 302 306 0
307 -302 0
307 -306 0
-308 -301 307 0
308 301 0
308 -307 0
-309 268 0
-309 284 0
-309 297 0
-309 308 0
-309 42 0
-268 -284 -297 -308 -42 309 0
-311 46 0
-311 310 0
-311 141 0
-46 -310 -141 311 0
-313 312 0
-312 314 0
-315 -311 312 0
315 311 0
315 -312 0
-316 46 0
-316 147 0
-46 -147 316 0
-318 317 0
-318 141 0
-317 -141 318 0
-319 316 318 0
319 -316 0
319 -318 0
-320 59 0
-320 147 0
-59 -147 320 0
-310 321 0
-322 321 0
-322 141 0
-321 -141 322 0
-323 320 322 0
323 -320 0
323 -322 0
-324 319 0
-324 323 0
-319 -323 324 0
-325 157 0
-325 147 0
-157 -147 325 0
-327 326 0
-326 328 0
-329 326 0
-329 141 0
-326 -141 329 0
-330 325 329 0
330 -325 0
330 -329 0
-331 -324 330 0
331 324 0
331 -330 0
-332 73 0
-332 147 0
-73 -147 332 0
-333 317 0
-334 333 0
-334 141 0
-333 -141 334 0
-335 332 334 0
335 -332 0
335 -334 0
-336 59 0
-336 242 0
-59 -242 336 0
-338 337 0
-338 245 0
-337 -245 338 0
-339 336 338 0
339 -336 0
339 -338 0
-340 335 0
-340 339 0
-335 -339 340 0
-342 341 0
-341 343 0
-344 -340 341 0
344 340 0
344 -341 0
-345 73 0
-345 242 0
-73 -242 345 0
-347 346 0
-347 245 0
-346 -245 347 0
-348 345 347 0
348 -345 0
348 -347 0
-349 254 0
-349 242 0
-254 -242 349 0
-351 350 0
-350 352 0
-353 350 0
-353 245 0
-350 -245 353 0
-354 349 353 0
354 -349 0
354 -353 0
-355 -348 354 0
355 348 0
355 -354 0
-356 315 0
-356 331 0
-356 344 0
-356 355 0
-356 40 0
-315 -331 -344 -355 -40 356 0
-357 139 188 225 262 309 356 0
357 -139 0
357 -188 0
357 -225 0
357 -262 0
357 -309 0
357 -356 0
-358 -357 0
358 357 0
-359 1 0
-359 2 0
-359 3 0
-359 4 0
-359 5 0
-359 6 0
-359 7 0
-359 8 0
-359 9 0
-359 10 0
-359 11 0
-359 12 0
-359 13 0
-359 14 0
-359 15 0
-359 16 0
-359 17 0
-359 18 0
-359 19 0
-359 20 0
-359 21 0
-359 22 0
-359 23 0
-359 24 0
-359 25 0
-359 26 0
-359 45 0
-359 53 0
-359 72 0
-359 88 0
-359 100 0
-359 358 0
-1 -2 -3 -4 -5 -6 -7 -8 -9 -10 -11 -12 -13 -14 -15 -16 -17 -18 -19 -20 -21 -22 -23 -24 -25 -26 -45 -53 -72 -88 -100 -358 359 0
359 0
-360 361 0
360 0
-362 363 0
-363 -364 0
-363 365 0
-364 365 0
-365 -366 0
-365 367 0
-366 367 0
-367 -368 0
-367 369 0
-368 369 0
362 364 366 368 0
-370 371 0
370 0
-372 373 0
-373 -374 0
-373 375 0
-374 375 0
-375 -376 0
-375 377 0
-376 377 0
-377 -378 0
-377 379 0
-378 379 0
372 374 376 378 0
-380 381 0
380 0
-382 383 0
382 0
-384 385 0
384 0
-386 387 0
386 0
-388 389 0
388 0
-390 391 0
390 0
-392 393 0
392 0
-394 395 0
394 0
-396 397 0
396 0
c 56 -> SNNT.QueryGeneration.ConstraintVariable(0.62*x2-1.0*x4<=0.51)
c 35 -> Intermediate
c 60 -> Intermediate
c 308 -> Intermediate
c 215 -> Intermediate
c 73 -> SNNT.QueryGeneration.ConstraintVariable(-88000.0*x4<44000.0)
c 319 -> Intermediate
c 251 -> SNNT.QueryGeneration.ConstraintVariable(-0.12*x2-0.2*x4<0.08)
c 115 -> Intermediate
c 112 -> Intermediate
c 185 -> Intermediate
c 348 -> Intermediate
c 365 -> Intermediate
c 333 -> SNNT.QueryGeneration.ConstraintVariable(-0.47*x2-1.0*x4<0.5)
c 168 -> Intermediate
c 364 -> SNNT.QueryGeneration.ApproxCase(2, 2)
c 207 -> SNNT.QueryGeneration.ConstraintVariable(-0.12*x20.2*x4<=-0.08)
c 263 -> SNNT.QueryGeneration.ConstraintVariable(-0.47*x21.0*x4<-0.51)
c 242 -> SNNT.QueryGeneration.ConstraintVariable(-200.0*x2<=-25.0)
c 376 -> SNNT.QueryGeneration.ApproxCase(4, 3)
c 224 -> Intermediate
c 177 -> Intermediate
c 12 -> SNNT.QueryGeneration.ConstraintVariable(1.0*x8<=100.0)
c 75 -> SNNT.QueryGeneration.ConstraintVariable(0.62*x2-1.0*x4<0.5)
c 23 -> SNNT.QueryGeneration.ConstraintVariable(-1.0*x10<=100.0)
c 111 -> Intermediate
c 264 -> Intermediate
c 41 -> Intermediate
c 82 -> Intermediate
c 130 -> Intermediate
c 77 -> Intermediate
c 172 -> Intermediate
c 71 -> Intermediate
c 339 -> Intermediate
c 66 -> Intermediate
c 59 -> SNNT.QueryGeneration.ConstraintVariable(88000.0*x4<=-44000.0)
c 208 -> SNNT.QueryGeneration.ConstraintVariable(-200.0*x2<25.0)
c 336 -> Intermediate
c 26 -> SNNT.QueryGeneration.ConstraintVariable(-1.0*x13<=100.0)
c 211 -> Intermediate
c 358 -> Intermediate
c 366 -> SNNT.QueryGeneration.ApproxCase(2, 3)
c 127 -> Intermediate
c 116 -> Intermediate
c 100 -> Intermediate
c 79 -> Intermediate
c 230 -> Intermediate
c 195 -> Intermediate
c 374 -> SNNT.QueryGeneration.ApproxCase(4, 2)
c 141 -> SNNT.QueryGeneration.ConstraintVariable(200.0*x2<0.0)
c 278 -> Intermediate
c 388 -> SNNT.QueryGeneration.ApproxCase(9, 1)
c 389 -> Intermediate
c 138 -> Intermediate
c 222 -> Intermediate
c 107 -> Intermediate
c 46 -> SNNT.QueryGeneration.ConstraintVariable(-88000.0*x4<=45000.0)
c 276 -> Intermediate
c 57 -> Intermediate
c 381 -> Intermediate
c 152 -> Intermediate
c 247 -> Intermediate
c 170 -> Intermediate
c 397 -> Intermediate
c 129 -> Intermediate
c 238 -> Intermediate
c 250 -> Intermediate
c 78 -> SNNT.QueryGeneration.ConstraintVariable(200.0*x2<=-1500.0)
c 72 -> Intermediate
c 252 -> Intermediate
c 1 -> SNNT.QueryGeneration.ConstraintVariable(-16000.0*x1<=8000.0)
c 137 -> Intermediate
c 22 -> SNNT.QueryGeneration.ConstraintVariable(-1.0*x9<=100.0)
c 154 -> Intermediate
c 391 -> Intermediate
c 237 -> Intermediate
c 206 -> Intermediate
c 288 -> Intermediate
c 270 -> SNNT.QueryGeneration.ConstraintVariable(0.47*x2-1.0*x4<=0.51)
c 354 -> Intermediate
c 299 -> SNNT.QueryGeneration.ConstraintVariable(0.09*x2-0.2*x4<0.09)
c 33 -> Intermediate
c 345 -> Intermediate
c 40 -> SNNT.QueryGeneration.IsMaxCase(Formula[1.0*x9-1.0*x11<0.0, 1.0*x5-1.0*x11<0.0, 1.0*x8-1.0*x11<0.0, 1.0*x6-1.0*x11<0.0, 1.0*x7-1.0*x11<0.0, -1.0*x111.0*x13<0.0, 1.0*x10-1.0*x11<0.0, -1.0*x111.0*x12<0.0])
c 231 -> Intermediate
c 245 -> SNNT.QueryGeneration.ConstraintVariable(200.0*x2<25.0)
c 254 -> SNNT.QueryGeneration.ConstraintVariable(1.0*x1-0.06*x4<0.02)
c 283 -> Intermediate
c 165 -> Intermediate
c 309 -> Intermediate
c 142 -> Intermediate
c 5 -> SNNT.QueryGeneration.ConstraintVariable(-200.0*x2<=100.0)
c 55 -> Intermediate
c 325 -> Intermediate
c 136 -> Intermediate
c 117 -> Intermediate
c 45 -> Intermediate
c 282 -> Intermediate
c 275 -> Intermediate
c 337 -> SNNT.QueryGeneration.ConstraintVariable(0.09*x20.2*x4<=-0.09)
c 393 -> Intermediate
c 363 -> Intermediate
c 378 -> SNNT.QueryGeneration.ApproxCase(4, 4)
c 158 -> Intermediate
c 218 -> Intermediate
c 176 -> Intermediate
c 28 -> SNNT.QueryGeneration.IsMaxCase(Formula[1.0*x5-1.0*x9<0.0, 1.0*x8-1.0*x9<0.0, 1.0*x6-1.0*x9<0.0, 1.0*x7-1.0*x9<0.0, -1.0*x91.0*x13<0.0, -1.0*x91.0*x11<0.0, -1.0*x91.0*x10<0.0, -1.0*x91.0*x12<0.0])
c 148 -> Intermediate
c 92 -> Intermediate
c 36 -> SNNT.QueryGeneration.IsMaxCase(Formula[-1.0*x71.0*x9<0.0, 1.0*x5-1.0*x7<0.0, -1.0*x71.0*x8<0.0, 1.0*x6-1.0*x7<0.0, -1.0*x71.0*x13<0.0, -1.0*x71.0*x11<0.0, -1.0*x71.0*x10<0.0, -1.0*x71.0*x12<0.0])
c 118 -> Intermediate
c 162 -> Intermediate
c 84 -> Intermediate
c 7 -> SNNT.QueryGeneration.ConstraintVariable(-200.0*x3<=0.0)
c 25 -> SNNT.QueryGeneration.ConstraintVariable(-1.0*x12<=100.0)
c 203 -> Intermediate
c 292 -> Intermediate
c 353 -> Intermediate
c 232 -> Intermediate
c 93 -> SNNT.QueryGeneration.ConstraintVariable(-0.27*x1-1.0*x4<0.5)
c 18 -> SNNT.QueryGeneration.ConstraintVariable(-1.0*x5<=100.0)
c 240 -> Intermediate
c 147 -> SNNT.QueryGeneration.ConstraintVariable(-200.0*x2<=0.0)
c 157 -> SNNT.QueryGeneration.ConstraintVariable(16000.0*x1<-100.0)
c 16 -> SNNT.QueryGeneration.ConstraintVariable(1.0*x12<=100.0)
c 370 -> SNNT.QueryGeneration.ApproxCase(3, 1)
c 392 -> SNNT.QueryGeneration.ApproxCase(11, 1)
c 287 -> Intermediate
c 349 -> Intermediate
c 19 -> SNNT.QueryGeneration.ConstraintVariable(-1.0*x6<=100.0)
c 44 -> SNNT.QueryGeneration.IsMaxCase(Formula[1.0*x9-1.0*x12<0.0, 1.0*x5-1.0*x12<0.0, 1.0*x8-1.0*x12<0.0, 1.0*x6-1.0*x12<0.0, 1.0*x7-1.0*x12<0.0, -1.0*x121.0*x13<0.0, 1.0*x11-1.0*x12<0.0, 1.0*x10-1.0*x12<0.0])
c 31 -> Intermediate
c 217 -> SNNT.QueryGeneration.ConstraintVariable(-1.0*x1-0.06*x4<0.02)
c 146 -> Intermediate
c 368 -> SNNT.QueryGeneration.ApproxCase(2, 4)
c 74 -> Intermediate
c 61 -> SNNT.QueryGeneration.ConstraintVariable(-0.62*x21.0*x4<=-0.5)
c 29 -> Intermediate
c 390 -> SNNT.QueryGeneration.ApproxCase(10, 1)
c 380 -> SNNT.QueryGeneration.ApproxCase(5, 1)
c 212 -> Intermediate
c 228 -> Intermediate
c 193 -> Intermediate
c 226 -> Intermediate
c 101 -> Intermediate
c 360 -> SNNT.QueryGeneration.ApproxCase(1, 1)
c 105 -> Intermediate
c 223 -> Intermediate
c 285 -> Intermediate
c 17 -> SNNT.QueryGeneration.ConstraintVariable(1.0*x13<=100.0)
c 271 -> Intermediate
c 335 -> Intermediate
c 166 -> SNNT.QueryGeneration.ConstraintVariable(-0.62*x2-1.0*x4<0.5)
c 89 -> Intermediate
c 198 -> Intermediate
c 214 -> SNNT.QueryGeneration.ConstraintVariable(0.12*x2-0.2*x4<0.08)
c 80 -> SNNT.QueryGeneration.ConstraintVariable(-0.12*x20.2*x4<=0.83)
c 331 -> Intermediate
c 274 -> SNNT.QueryGeneration.ConstraintVariable(-0.47*x21.0*x4<=-0.5)
c 246 -> Intermediate
c 48 -> SNNT.QueryGeneration.ConstraintVariable(-200.0*x2<0.0)
c 15 -> SNNT.QueryGeneration.ConstraintVariable(1.0*x11<=100.0)
c 330 -> Intermediate
c 284 -> Intermediate
c 110 -> Intermediate
c 30 -> SNNT.QueryGeneration.IsMaxCase(Formula[-1.0*x51.0*x9<0.0, -1.0*x51.0*x8<0.0, -1.0*x51.0*x6<0.0, -1.0*x51.0*x7<0.0, -1.0*x51.0*x13<0.0, -1.0*x51.0*x11<0.0, -1.0*x51.0*x10<0.0, -1.0*x51.0*x12<0.0])
c 6 -> SNNT.QueryGeneration.ConstraintVariable(200.0*x2<=100.0)
c 234 -> Intermediate
c 367 -> Intermediate
c 272 -> Intermediate
c 164 -> Intermediate
c 153 -> SNNT.QueryGeneration.ConstraintVariable(0.62*x21.0*x4<=-0.5)
c 186 -> Intermediate
c 253 -> Intermediate
c 64 -> Intermediate
c 394 -> SNNT.QueryGeneration.ApproxCase(12, 1)
c 90 -> SNNT.QueryGeneration.ConstraintVariable(0.12*x2-0.2*x4<-0.83)
c 139 -> Intermediate
c 4 -> SNNT.QueryGeneration.ConstraintVariable(40.0*x4<=20.0)
c 13 -> SNNT.QueryGeneration.ConstraintVariable(1.0*x9<=100.0)
c 359 -> Intermediate
c 104 -> Intermediate
c 316 -> Intermediate
c 179 -> Intermediate
c 369 -> Intermediate
c 356 -> Intermediate
c 300 -> Intermediate
c 43 -> Intermediate
c 11 -> SNNT.QueryGeneration.ConstraintVariable(1.0*x7<=100.0)
c 171 -> Intermediate
c 302 -> Intermediate
c 119 -> Intermediate
c 39 -> Intermediate
c 216 -> Intermediate
c 108 -> Intermediate
c 382 -> SNNT.QueryGeneration.ApproxCase(6, 1)
c 156 -> Intermediate
c 2 -> SNNT.QueryGeneration.ConstraintVariable(16000.0*x1<=8000.0)
c 10 -> SNNT.QueryGeneration.ConstraintVariable(1.0*x6<=100.0)
c 27 -> Intermediate
c 124 -> Intermediate
c 261 -> Intermediate
c 307 -> Intermediate
c 273 -> Intermediate
c 200 -> Intermediate
c 290 -> SNNT.QueryGeneration.ConstraintVariable(-0.09*x20.2*x4<=-0.09)
c 20 -> SNNT.QueryGeneration.ConstraintVariable(-1.0*x7<=100.0)
c 81 -> SNNT.QueryGeneration.ConstraintVariable(-200.0*x2<1500.0)
c 340 -> Intermediate
c 187 -> Intermediate
c 213 -> Intermediate
c 329 -> Intermediate
c 9 -> SNNT.QueryGeneration.ConstraintVariable(1.0*x5<=100.0)
c 344 -> Intermediate
c 189 -> Intermediate
c 346 -> SNNT.QueryGeneration.ConstraintVariable(-0.09*x2-0.2*x4<0.09)
c 227 -> Intermediate
c 109 -> Intermediate
c 249 -> Intermediate
c 383 -> Intermediate
c 395 -> Intermediate
c 372 -> SNNT.QueryGeneration.ApproxCase(4, 1)
c 241 -> Intermediate
c 88 -> Intermediate
c 209 -> Intermediate
c 236 -> Intermediate
c 120 -> Intermediate
c 323 -> Intermediate
c 260 -> Intermediate
c 297 -> Intermediate
c 24 -> SNNT.QueryGeneration.ConstraintVariable(-1.0*x11<=100.0)
c 8 -> SNNT.QueryGeneration.ConstraintVariable(200.0*x3<=0.0)
c 37 -> Intermediate
c 83 -> Intermediate
c 190 -> Intermediate
c 201 -> Intermediate
c 99 -> Intermediate
c 121 -> Intermediate
c 311 -> Intermediate
c 14 -> SNNT.QueryGeneration.ConstraintVariable(1.0*x10<=100.0)
c 386 -> SNNT.QueryGeneration.ApproxCase(8, 1)
c 357 -> Intermediate
c 334 -> Intermediate
c 322 -> Intermediate
c 269 -> Intermediate
c 315 -> Intermediate
c 123 -> Intermediate
c 268 -> Intermediate
c 32 -> SNNT.QueryGeneration.IsMaxCase(Formula[-1.0*x81.0*x9<0.0, 1.0*x5-1.0*x8<0.0, 1.0*x6-1.0*x8<0.0, 1.0*x7-1.0*x8<0.0, -1.0*x81.0*x13<0.0, -1.0*x81.0*x11<0.0, -1.0*x81.0*x10<0.0, -1.0*x81.0*x12<0.0])
c 197 -> Intermediate
c 233 -> Intermediate
c 196 -> Intermediate
c 262 -> Intermediate
c 320 -> Intermediate
c 324 -> Intermediate
c 210 -> Intermediate
c 151 -> Intermediate
c 239 -> Intermediate
c 54 -> SNNT.QueryGeneration.ConstraintVariable(200.0*x2<=0.0)
c 63 -> Intermediate
c 191 -> Intermediate
c 91 -> Intermediate
c 62 -> Intermediate
c 205 -> SNNT.QueryGeneration.ConstraintVariable(200.0*x2<=-25.0)
c 244 -> SNNT.QueryGeneration.ConstraintVariable(0.12*x20.2*x4<=-0.08)
c 150 -> Intermediate
c 122 -> Intermediate
c 58 -> Intermediate
c 199 -> Intermediate
c 188 -> Intermediate
c 277 -> Intermediate
c 361 -> Intermediate
c 98 -> Intermediate
c 355 -> Intermediate
c 235 -> Intermediate
c 204 -> Intermediate
c 385 -> Intermediate
c 377 -> Intermediate
c 310 -> SNNT.QueryGeneration.ConstraintVariable(0.47*x21.0*x4<-0.51)
c 321 -> SNNT.QueryGeneration.ConstraintVariable(0.47*x21.0*x4<=-0.5)
c 371 -> Intermediate
c 384 -> SNNT.QueryGeneration.ApproxCase(7, 1)
c 76 -> Intermediate
c 34 -> SNNT.QueryGeneration.IsMaxCase(Formula[-1.0*x61.0*x9<0.0, 1.0*x5-1.0*x6<0.0, -1.0*x61.0*x8<0.0, -1.0*x61.0*x7<0.0, -1.0*x61.0*x13<0.0, -1.0*x61.0*x11<0.0, -1.0*x61.0*x10<0.0, -1.0*x61.0*x12<0.0])
c 243 -> Intermediate
c 318 -> Intermediate
c 194 -> Intermediate
c 167 -> Intermediate
c 42 -> SNNT.QueryGeneration.IsMaxCase(Formula[1.0*x9-1.0*x10<0.0, 1.0*x5-1.0*x10<0.0, 1.0*x8-1.0*x10<0.0, 1.0*x6-1.0*x10<0.0, 1.0*x7-1.0*x10<0.0, -1.0*x101.0*x13<0.0, -1.0*x101.0*x11<0.0, -1.0*x101.0*x12<0.0])
c 132 -> Intermediate
c 140 -> SNNT.QueryGeneration.ConstraintVariable(0.62*x21.0*x4<-0.51)
c 202 -> Intermediate
c 248 -> Intermediate
c 169 -> Intermediate
c 301 -> Intermediate
c 317 -> SNNT.QueryGeneration.ConstraintVariable(-0.47*x2-1.0*x4<=0.51)
c 180 -> SNNT.QueryGeneration.ConstraintVariable(3.52e7*x1<-220000.0)
c 255 -> Intermediate
c 289 -> Intermediate
c 49 -> Intermediate
c 291 -> Intermediate
c 106 -> Intermediate
c 94 -> Intermediate
c 225 -> Intermediate
c 128 -> Intermediate
c 259 -> Intermediate
c 70 -> Intermediate
c 347 -> Intermediate
c 332 -> Intermediate
c 21 -> SNNT.QueryGeneration.ConstraintVariable(-1.0*x8<=100.0)
c 229 -> Intermediate
c 38 -> SNNT.QueryGeneration.IsMaxCase(Formula[1.0*x9-1.0*x13<0.0, 1.0*x5-1.0*x13<0.0, 1.0*x8-1.0*x13<0.0, 1.0*x6-1.0*x13<0.0, 1.0*x7-1.0*x13<0.0, 1.0*x11-1.0*x13<0.0, 1.0*x10-1.0*x13<0.0, 1.0*x12-1.0*x13<0.0])
c 163 -> Intermediate
c 375 -> Intermediate
c 379 -> Intermediate
c 131 -> SNNT.QueryGeneration.ConstraintVariable(-3.52e7*x1<-220000.0)
c 396 -> SNNT.QueryGeneration.ApproxCase(13, 1)
c 192 -> Intermediate
c 373 -> Intermediate
c 53 -> Intermediate
c 362 -> SNNT.QueryGeneration.ApproxCase(2, 1)
c 47 -> SNNT.QueryGeneration.ConstraintVariable(-0.62*x21.0*x4<-0.51)
c 286 -> SNNT.QueryGeneration.ConstraintVariable(0.47*x2-1.0*x4<0.5)
c 338 -> Intermediate
c 3 -> SNNT.QueryGeneration.ConstraintVariable(-40.0*x4<=14.0)
c 178 -> Intermediate
c 306 -> Intermediate
c 387 -> Intermediate
c 149 -> SNNT.QueryGeneration.ConstraintVariable(-0.62*x2-1.0*x4<=0.51)
c 155 -> Intermediate
c 181 -> Intermediate
c 65 -> SNNT.QueryGeneration.ConstraintVariable(-16000.0*x1<-100.0)
c 293 -> Intermediate
c 298 -> Intermediate
c ----------------------------------------
c s pmc 451319537664
c query_construc...  58.8k
c next_query           12.5k
c check_infeasib...  66.4k